NAME           C:\Bruker\Hvattum\knapsack\Problems\class1\100-5-15.mps
ROWS
 N  OBJ
 L  CONSTR1
 L  CONSTR2
 L  CONSTR3
 L  CONSTR4
 L  CONSTR5
COLUMNS
    INT0001   'MARKER'  'INTORG'
    X1        OBJ       603
    X1        CONSTR1   564
    X1        CONSTR2   69
    X1        CONSTR3   50
    X1        CONSTR4   564
    X1        CONSTR5   890
    X2        OBJ       637
    X2        CONSTR1   573
    X2        CONSTR2   120
    X2        CONSTR3   196
    X2        CONSTR4   379
    X2        CONSTR5   113
    X3        OBJ       840
    X3        CONSTR1   644
    X3        CONSTR2   707
    X3        CONSTR3   633
    X3        CONSTR4   11
    X3        CONSTR5   529
    X4        OBJ       1091
    X4        CONSTR1   578
    X4        CONSTR2   768
    X4        CONSTR3   827
    X4        CONSTR4   703
    X4        CONSTR5   561
    X5        OBJ       780
    X5        CONSTR1   35
    X5        CONSTR2   617
    X5        CONSTR3   922
    X5        CONSTR4   236
    X5        CONSTR5   741
    X6        OBJ       642
    X6        CONSTR1   292
    X6        CONSTR2   344
    X6        CONSTR3   782
    X6        CONSTR4   624
    X6        CONSTR5   55
    X7        OBJ       895
    X7        CONSTR1   982
    X7        CONSTR2   512
    X7        CONSTR3   434
    X7        CONSTR4   107
    X7        CONSTR5   816
    X8        OBJ       540
    X8        CONSTR1   294
    X8        CONSTR2   212
    X8        CONSTR3   701
    X8        CONSTR4   909
    X8        CONSTR5   259
    X9        OBJ       601
    X9        CONSTR1   315
    X9        CONSTR2   763
    X9        CONSTR3   280
    X9        CONSTR4   335
    X9        CONSTR5   722
    X10       OBJ       701
    X10       CONSTR1   809
    X10       CONSTR2   553
    X10       CONSTR3   81
    X10       CONSTR4   786
    X10       CONSTR5   134
    X11       OBJ       731
    X11       CONSTR1   523
    X11       CONSTR2   141
    X11       CONSTR3   345
    X11       CONSTR4   690
    X11       CONSTR5   960
    X12       OBJ       686
    X12       CONSTR1   94
    X12       CONSTR2   463
    X12       CONSTR3   726
    X12       CONSTR4   595
    X12       CONSTR5   787
    X13       OBJ       496
    X13       CONSTR1   663
    X13       CONSTR2   598
    X13       CONSTR3   793
    X13       CONSTR4   161
    X13       CONSTR5   58
    X14       OBJ       731
    X14       CONSTR1   780
    X14       CONSTR2   582
    X14       CONSTR3   76
    X14       CONSTR4   477
    X14       CONSTR5   952
    X15       OBJ       427
    X15       CONSTR1   949
    X15       CONSTR2   691
    X15       CONSTR3   23
    X15       CONSTR4   127
    X15       CONSTR5   303
    X16       OBJ       558
    X16       CONSTR1   36
    X16       CONSTR2   647
    X16       CONSTR3   732
    X16       CONSTR4   33
    X16       CONSTR5   567
    X17       OBJ       805
    X17       CONSTR1   166
    X17       CONSTR2   772
    X17       CONSTR3   648
    X17       CONSTR4   387
    X17       CONSTR5   377
    X18       OBJ       702
    X18       CONSTR1   798
    X18       CONSTR2   404
    X18       CONSTR3   493
    X18       CONSTR4   319
    X18       CONSTR5   642
    X19       OBJ       759
    X19       CONSTR1   640
    X19       CONSTR2   238
    X19       CONSTR3   752
    X19       CONSTR4   663
    X19       CONSTR5   99
    X20       OBJ       463
    X20       CONSTR1   526
    X20       CONSTR2   295
    X20       CONSTR3   532
    X20       CONSTR4   627
    X20       CONSTR5   110
    X21       OBJ       970
    X21       CONSTR1   176
    X21       CONSTR2   375
    X21       CONSTR3   883
    X21       CONSTR4   311
    X21       CONSTR5   761
    X22       OBJ       915
    X22       CONSTR1   745
    X22       CONSTR2   302
    X22       CONSTR3   475
    X22       CONSTR4   205
    X22       CONSTR5   521
    X23       OBJ       561
    X23       CONSTR1   816
    X23       CONSTR2   842
    X23       CONSTR3   583
    X23       CONSTR4   133
    X23       CONSTR5   374
    X24       OBJ       964
    X24       CONSTR1   748
    X24       CONSTR2   771
    X24       CONSTR3   111
    X24       CONSTR4   998
    X24       CONSTR5   12
    X25       OBJ       898
    X25       CONSTR1   238
    X25       CONSTR2   338
    X25       CONSTR3   594
    X25       CONSTR4   827
    X25       CONSTR5   927
    X26       OBJ       941
    X26       CONSTR1   369
    X26       CONSTR2   363
    X26       CONSTR3   687
    X26       CONSTR4   216
    X26       CONSTR5   939
    X27       OBJ       748
    X27       CONSTR1   542
    X27       CONSTR2   496
    X27       CONSTR3   134
    X27       CONSTR4   201
    X27       CONSTR5   208
    X28       OBJ       877
    X28       CONSTR1   855
    X28       CONSTR2   99
    X28       CONSTR3   713
    X28       CONSTR4   237
    X28       CONSTR5   902
    X29       OBJ       952
    X29       CONSTR1   95
    X29       CONSTR2   915
    X29       CONSTR3   290
    X29       CONSTR4   341
    X29       CONSTR5   732
    X30       OBJ       339
    X30       CONSTR1   191
    X30       CONSTR2   41
    X30       CONSTR3   442
    X30       CONSTR4   645
    X30       CONSTR5   213
    X31       OBJ       690
    X31       CONSTR1   121
    X31       CONSTR2   102
    X31       CONSTR3   115
    X31       CONSTR4   578
    X31       CONSTR5   680
    X32       OBJ       860
    X32       CONSTR1   510
    X32       CONSTR2   799
    X32       CONSTR3   491
    X32       CONSTR4   536
    X32       CONSTR5   437
    X33       OBJ       600
    X33       CONSTR1   58
    X33       CONSTR2   190
    X33       CONSTR3   462
    X33       CONSTR4   264
    X33       CONSTR5   387
    X34       OBJ       604
    X34       CONSTR1   633
    X34       CONSTR2   413
    X34       CONSTR3   797
    X34       CONSTR4   511
    X34       CONSTR5   616
    X35       OBJ       646
    X35       CONSTR1   478
    X35       CONSTR2   362
    X35       CONSTR3   481
    X35       CONSTR4   171
    X35       CONSTR5   8
    X36       OBJ       653
    X36       CONSTR1   24
    X36       CONSTR2   422
    X36       CONSTR3   667
    X36       CONSTR4   977
    X36       CONSTR5   155
    X37       OBJ       760
    X37       CONSTR1   352
    X37       CONSTR2   747
    X37       CONSTR3   456
    X37       CONSTR4   658
    X37       CONSTR5   325
    X38       OBJ       654
    X38       CONSTR1   75
    X38       CONSTR2   290
    X38       CONSTR3   818
    X38       CONSTR4   781
    X38       CONSTR5   34
    X39       OBJ       638
    X39       CONSTR1   480
    X39       CONSTR2   485
    X39       CONSTR3   419
    X39       CONSTR4   14
    X39       CONSTR5   466
    X40       OBJ       721
    X40       CONSTR1   448
    X40       CONSTR2   775
    X40       CONSTR3   817
    X40       CONSTR4   142
    X40       CONSTR5   134
    X41       OBJ       988
    X41       CONSTR1   516
    X41       CONSTR2   403
    X41       CONSTR3   387
    X41       CONSTR4   934
    X41       CONSTR5   494
    X42       OBJ       693
    X42       CONSTR1   900
    X42       CONSTR2   429
    X42       CONSTR3   30
    X42       CONSTR4   691
    X42       CONSTR5   206
    X43       OBJ       721
    X43       CONSTR1   439
    X43       CONSTR2   759
    X43       CONSTR3   897
    X43       CONSTR4   396
    X43       CONSTR5   454
    X44       OBJ       380
    X44       CONSTR1   331
    X44       CONSTR2   676
    X44       CONSTR3   73
    X44       CONSTR4   109
    X44       CONSTR5   55
    X45       OBJ       482
    X45       CONSTR1   217
    X45       CONSTR2   605
    X45       CONSTR3   832
    X45       CONSTR4   424
    X45       CONSTR5   181
    X46       OBJ       517
    X46       CONSTR1   600
    X46       CONSTR2   474
    X46       CONSTR3   99
    X46       CONSTR4   154
    X46       CONSTR5   875
    X47       OBJ       931
    X47       CONSTR1   656
    X47       CONSTR2   670
    X47       CONSTR3   312
    X47       CONSTR4   400
    X47       CONSTR5   905
    X48       OBJ       454
    X48       CONSTR1   347
    X48       CONSTR2   170
    X48       CONSTR3   926
    X48       CONSTR4   36
    X48       CONSTR5   650
    X49       OBJ       971
    X49       CONSTR1   978
    X49       CONSTR2   211
    X49       CONSTR3   522
    X49       CONSTR4   428
    X49       CONSTR5   919
    X50       OBJ       679
    X50       CONSTR1   337
    X50       CONSTR2   440
    X50       CONSTR3   391
    X50       CONSTR4   942
    X50       CONSTR5   261
    X51       OBJ       945
    X51       CONSTR1   559
    X51       CONSTR2   750
    X51       CONSTR3   595
    X51       CONSTR4   990
    X51       CONSTR5   797
    X52       OBJ       695
    X52       CONSTR1   649
    X52       CONSTR2   721
    X52       CONSTR3   325
    X52       CONSTR4   251
    X52       CONSTR5   403
    X53       OBJ       954
    X53       CONSTR1   583
    X53       CONSTR2   203
    X53       CONSTR3   762
    X53       CONSTR4   541
    X53       CONSTR5   776
    X54       OBJ       663
    X54       CONSTR1   628
    X54       CONSTR2   285
    X54       CONSTR3   830
    X54       CONSTR4   411
    X54       CONSTR5   53
    X55       OBJ       592
    X55       CONSTR1   839
    X55       CONSTR2   7
    X55       CONSTR3   340
    X55       CONSTR4   999
    X55       CONSTR5   267
    X56       OBJ       570
    X56       CONSTR1   397
    X56       CONSTR2   467
    X56       CONSTR3   653
    X56       CONSTR4   32
    X56       CONSTR5   100
    X57       OBJ       894
    X57       CONSTR1   285
    X57       CONSTR2   814
    X57       CONSTR3   569
    X57       CONSTR4   790
    X57       CONSTR5   622
    X58       OBJ       731
    X58       CONSTR1   156
    X58       CONSTR2   346
    X58       CONSTR3   616
    X58       CONSTR4   919
    X58       CONSTR5   113
    X59       OBJ       273
    X59       CONSTR1   45
    X59       CONSTR2   498
    X59       CONSTR3   504
    X59       CONSTR4   65
    X59       CONSTR5   161
    X60       OBJ       715
    X60       CONSTR1   461
    X60       CONSTR2   214
    X60       CONSTR3   631
    X60       CONSTR4   544
    X60       CONSTR5   761
    X61       OBJ       431
    X61       CONSTR1   2
    X61       CONSTR2   379
    X61       CONSTR3   729
    X61       CONSTR4   930
    X61       CONSTR5   110
    X62       OBJ       393
    X62       CONSTR1   866
    X62       CONSTR2   148
    X62       CONSTR3   154
    X62       CONSTR4   221
    X62       CONSTR5   364
    X63       OBJ       994
    X63       CONSTR1   832
    X63       CONSTR2   809
    X63       CONSTR3   638
    X63       CONSTR4   585
    X63       CONSTR5   755
    X64       OBJ       667
    X64       CONSTR1   295
    X64       CONSTR2   873
    X64       CONSTR3   74
    X64       CONSTR4   702
    X64       CONSTR5   176
    X65       OBJ       735
    X65       CONSTR1   747
    X65       CONSTR2   937
    X65       CONSTR3   746
    X65       CONSTR4   893
    X65       CONSTR5   267
    X66       OBJ       848
    X66       CONSTR1   391
    X66       CONSTR2   607
    X66       CONSTR3   541
    X66       CONSTR4   495
    X66       CONSTR5   388
    X67       OBJ       1094
    X67       CONSTR1   617
    X67       CONSTR2   345
    X67       CONSTR3   998
    X67       CONSTR4   568
    X67       CONSTR5   715
    X68       OBJ       961
    X68       CONSTR1   118
    X68       CONSTR2   313
    X68       CONSTR3   483
    X68       CONSTR4   877
    X68       CONSTR5   753
    X69       OBJ       671
    X69       CONSTR1   310
    X69       CONSTR2   982
    X69       CONSTR3   510
    X69       CONSTR4   559
    X69       CONSTR5   690
    X70       OBJ       615
    X70       CONSTR1   159
    X70       CONSTR2   523
    X70       CONSTR3   857
    X70       CONSTR4   472
    X70       CONSTR5   662
    X71       OBJ       815
    X71       CONSTR1   602
    X71       CONSTR2   768
    X71       CONSTR3   849
    X71       CONSTR4   686
    X71       CONSTR5   632
    X72       OBJ       697
    X72       CONSTR1   422
    X72       CONSTR2   945
    X72       CONSTR3   655
    X72       CONSTR4   893
    X72       CONSTR5   570
    X73       OBJ       523
    X73       CONSTR1   414
    X73       CONSTR2   131
    X73       CONSTR3   196
    X73       CONSTR4   35
    X73       CONSTR5   991
    X74       OBJ       403
    X74       CONSTR1   190
    X74       CONSTR2   148
    X74       CONSTR3   80
    X74       CONSTR4   573
    X74       CONSTR5   105
    X75       OBJ       725
    X75       CONSTR1   936
    X75       CONSTR2   814
    X75       CONSTR3   220
    X75       CONSTR4   560
    X75       CONSTR5   831
    X76       OBJ       647
    X76       CONSTR1   384
    X76       CONSTR2   203
    X76       CONSTR3   560
    X76       CONSTR4   328
    X76       CONSTR5   951
    X77       OBJ       623
    X77       CONSTR1   170
    X77       CONSTR2   595
    X77       CONSTR3   301
    X77       CONSTR4   363
    X77       CONSTR5   101
    X78       OBJ       1172
    X78       CONSTR1   791
    X78       CONSTR2   107
    X78       CONSTR3   954
    X78       CONSTR4   994
    X78       CONSTR5   644
    X79       OBJ       898
    X79       CONSTR1   576
    X79       CONSTR2   62
    X79       CONSTR3   556
    X79       CONSTR4   971
    X79       CONSTR5   788
    X80       OBJ       643
    X80       CONSTR1   524
    X80       CONSTR2   105
    X80       CONSTR3   1000
    X80       CONSTR4   930
    X80       CONSTR5   91
    X81       OBJ       715
    X81       CONSTR1   181
    X81       CONSTR2   519
    X81       CONSTR3   919
    X81       CONSTR4   129
    X81       CONSTR5   87
    X82       OBJ       366
    X82       CONSTR1   561
    X82       CONSTR2   86
    X82       CONSTR3   92
    X82       CONSTR4   556
    X82       CONSTR5   537
    X83       OBJ       555
    X83       CONSTR1   931
    X83       CONSTR2   497
    X83       CONSTR3   16
    X83       CONSTR4   174
    X83       CONSTR5   223
    X84       OBJ       994
    X84       CONSTR1   338
    X84       CONSTR2   930
    X84       CONSTR3   617
    X84       CONSTR4   498
    X84       CONSTR5   817
    X85       OBJ       1017
    X85       CONSTR1   739
    X85       CONSTR2   460
    X85       CONSTR3   909
    X85       CONSTR4   782
    X85       CONSTR5   865
    X86       OBJ       915
    X86       CONSTR1   47
    X86       CONSTR2   319
    X86       CONSTR3   703
    X86       CONSTR4   258
    X86       CONSTR5   854
    X87       OBJ       669
    X87       CONSTR1   697
    X87       CONSTR2   199
    X87       CONSTR3   313
    X87       CONSTR4   393
    X87       CONSTR5   375
    X88       OBJ       883
    X88       CONSTR1   998
    X88       CONSTR2   918
    X88       CONSTR3   881
    X88       CONSTR4   706
    X88       CONSTR5   833
    X89       OBJ       492
    X89       CONSTR1   792
    X89       CONSTR2   143
    X89       CONSTR3   67
    X89       CONSTR4   411
    X89       CONSTR5   358
    X90       OBJ       660
    X90       CONSTR1   779
    X90       CONSTR2   367
    X90       CONSTR3   242
    X90       CONSTR4   817
    X90       CONSTR5   960
    X91       OBJ       891
    X91       CONSTR1   727
    X91       CONSTR2   628
    X91       CONSTR3   835
    X91       CONSTR4   928
    X91       CONSTR5   752
    X92       OBJ       581
    X92       CONSTR1   190
    X92       CONSTR2   39
    X92       CONSTR3   358
    X92       CONSTR4   224
    X92       CONSTR5   331
    X93       OBJ       845
    X93       CONSTR1   320
    X93       CONSTR2   5
    X93       CONSTR3   386
    X93       CONSTR4   953
    X93       CONSTR5   752
    X94       OBJ       860
    X94       CONSTR1   787
    X94       CONSTR2   81
    X94       CONSTR3   911
    X94       CONSTR4   908
    X94       CONSTR5   966
    X95       OBJ       750
    X95       CONSTR1   600
    X95       CONSTR2   843
    X95       CONSTR3   192
    X95       CONSTR4   221
    X95       CONSTR5   787
    X96       OBJ       775
    X96       CONSTR1   77
    X96       CONSTR2   37
    X96       CONSTR3   789
    X96       CONSTR4   698
    X96       CONSTR5   165
    X97       OBJ       952
    X97       CONSTR1   526
    X97       CONSTR2   437
    X97       CONSTR3   751
    X97       CONSTR4   664
    X97       CONSTR5   601
    X98       OBJ       640
    X98       CONSTR1   407
    X98       CONSTR2   918
    X98       CONSTR3   909
    X98       CONSTR4   216
    X98       CONSTR5   638
    X99       OBJ       784
    X99       CONSTR1   620
    X99       CONSTR2   174
    X99       CONSTR3   305
    X99       CONSTR4   417
    X99       CONSTR5   833
    X100      OBJ       535
    X100      CONSTR1   462
    X100      CONSTR2   824
    X100      CONSTR3   130
    X100      CONSTR4   260
    X100      CONSTR5   741
    INT0001   'MARKER'  'INTEND'
RHS
    RHS10001  CONSTR1   24132
    RHS10001  CONSTR2   22992
    RHS10001  CONSTR3   26091
    RHS10001  CONSTR4   25192
    RHS10001  CONSTR5   25309
BOUNDS
 BV BND       X1        .00
 BV BND       X2        .00
 BV BND       X3        .00
 BV BND       X4        .00
 BV BND       X5        .00
 BV BND       X6        .00
 BV BND       X7        .00
 BV BND       X8        .00
 BV BND       X9        .00
 BV BND       X10       .00
 BV BND       X11       .00
 BV BND       X12       .00
 BV BND       X13       .00
 BV BND       X14       .00
 BV BND       X15       .00
 BV BND       X16       .00
 BV BND       X17       .00
 BV BND       X18       .00
 BV BND       X19       .00
 BV BND       X20       .00
 BV BND       X21       .00
 BV BND       X22       .00
 BV BND       X23       .00
 BV BND       X24       .00
 BV BND       X25       .00
 BV BND       X26       .00
 BV BND       X27       .00
 BV BND       X28       .00
 BV BND       X29       .00
 BV BND       X30       .00
 BV BND       X31       .00
 BV BND       X32       .00
 BV BND       X33       .00
 BV BND       X34       .00
 BV BND       X35       .00
 BV BND       X36       .00
 BV BND       X37       .00
 BV BND       X38       .00
 BV BND       X39       .00
 BV BND       X40       .00
 BV BND       X41       .00
 BV BND       X42       .00
 BV BND       X43       .00
 BV BND       X44       .00
 BV BND       X45       .00
 BV BND       X46       .00
 BV BND       X47       .00
 BV BND       X48       .00
 BV BND       X49       .00
 BV BND       X50       .00
 BV BND       X51       .00
 BV BND       X52       .00
 BV BND       X53       .00
 BV BND       X54       .00
 BV BND       X55       .00
 BV BND       X56       .00
 BV BND       X57       .00
 BV BND       X58       .00
 BV BND       X59       .00
 BV BND       X60       .00
 BV BND       X61       .00
 BV BND       X62       .00
 BV BND       X63       .00
 BV BND       X64       .00
 BV BND       X65       .00
 BV BND       X66       .00
 BV BND       X67       .00
 BV BND       X68       .00
 BV BND       X69       .00
 BV BND       X70       .00
 BV BND       X71       .00
 BV BND       X72       .00
 BV BND       X73       .00
 BV BND       X74       .00
 BV BND       X75       .00
 BV BND       X76       .00
 BV BND       X77       .00
 BV BND       X78       .00
 BV BND       X79       .00
 BV BND       X80       .00
 BV BND       X81       .00
 BV BND       X82       .00
 BV BND       X83       .00
 BV BND       X84       .00
 BV BND       X85       .00
 BV BND       X86       .00
 BV BND       X87       .00
 BV BND       X88       .00
 BV BND       X89       .00
 BV BND       X90       .00
 BV BND       X91       .00
 BV BND       X92       .00
 BV BND       X93       .00
 BV BND       X94       .00
 BV BND       X95       .00
 BV BND       X96       .00
 BV BND       X97       .00
 BV BND       X98       .00
 BV BND       X99       .00
 BV BND       X100      .00
ENDATA
